








































































































46 63 60 2 18 0 47 28 5 
65 73 7 6 69 48 16 1 8 
57 39 36 31 75 45 62 66 
26 55 23 25 11 50 53 71 
30 56 76 41 44 32 64 58 38 33 
51 59 34 20 13 9 27 3 
37 40 4 15 29 74 43 17 
67 22 72 12 61 35 24 
19 21 52 54 10 68 70 49 
14 42 
